
(set-logic ALL) 

(declare-datatype MyList ((Nil) (Cons (head Real) (tail MyList)) )) 
(declare-fun l0 () MyList) 
(declare-fun l1 () MyList) 
(declare-fun l2 () MyList) 
(declare-fun l3 () MyList) 
(declare-fun i0 () Real) 
(declare-fun i1 () Real) 
(assert (and (= l3 l3) (= l0 l3)) )
(assert (or (is-Cons Nil) (= l2 Nil) (= l2 l0) (= l2 Nil)) )
(assert (is-Nil l3) )
(assert (= l0 Nil) )
(assert (not (= l3 Nil)) )
(assert (not (= l0 Nil)) )
(assert (is-Cons l2) )
(assert (is-Nil l3) )
(check-sat)
